multiobj/solutions/Ter.6.4.1.00.3.out
1 4
0 2 1 4 3 5 
4510534 4510534 4510534 4510534 
